(set-info :source |printed by MathSAT|)
(declare-fun |__ADDRESS_OF_main::CStack_20@| () (_ BitVec 32))
(declare-fun |__ADDRESS_OF_main::CStack_1c@| () (_ BitVec 32))
(declare-fun |__ADDRESS_OF_main::pathbuf@| () (_ BitVec 32))
(declare-fun *char@1 () (Array (_ BitVec 32) (_ BitVec 8)))
(declare-fun |main::CStack_1c@2| () (_ BitVec 8))
(declare-fun *char@2 () (Array (_ BitVec 32) (_ BitVec 8)))
(declare-fun |main::CStack_20@2| () (_ BitVec 8))
(declare-fun |glob2::pathbuf@2| () (_ BitVec 32))
(declare-fun |glob2::pathlim@2| () (_ BitVec 32))
(declare-fun |glob2::local_18@3| () (_ BitVec 32))
(declare-fun |glob2::tmp@2| () (_ BitVec 32))
(assert (let ((.def_73 (bvult |glob2::tmp@2| |glob2::local_18@3|)))(let ((.def_64 (bvult |glob2::pathlim@2| |glob2::local_18@3|)))(let ((.def_65 (not .def_64)))(let ((.def_61 (= |glob2::pathbuf@2| |glob2::local_18@3|)))(let ((.def_56 (= |__ADDRESS_OF_main::pathbuf@| |glob2::pathlim@2|)))(let ((.def_54 (= |__ADDRESS_OF_main::CStack_20@| |glob2::pathbuf@2|)))(let ((.def_57 (and .def_54 .def_56)))(let ((.def_50 (select *char@2 |__ADDRESS_OF_main::CStack_20@|)))(let ((.def_52 (= .def_50 |main::CStack_20@2|)))(let ((.def_58 (and .def_52 .def_57)))(let ((.def_42 ((_ extract 7 0) |__ADDRESS_OF_main::CStack_1c@|)))(let ((.def_44 (store *char@1 |__ADDRESS_OF_main::pathbuf@| .def_42)))(let ((.def_45 (= *char@2 .def_44)))(let ((.def_39 (select *char@1 |__ADDRESS_OF_main::CStack_1c@|)))(let ((.def_41 (= .def_39 |main::CStack_1c@2|)))(let ((.def_47 (and .def_41 .def_45)))(let ((.def_30 (bvadd (_ bv2 32) |__ADDRESS_OF_main::pathbuf@|)))(let ((.def_31 (bvslt (_ bv0 32) .def_30)))(let ((.def_21 (bvadd (_ bv1 32) |__ADDRESS_OF_main::CStack_1c@|)))(let ((.def_27 (bvslt .def_21 |__ADDRESS_OF_main::pathbuf@|)))(let ((.def_37 (and .def_27 .def_31)))(let ((.def_22 (bvslt (_ bv0 32) .def_21)))(let ((.def_14 (bvadd (_ bv1 32) |__ADDRESS_OF_main::CStack_20@|)))(let ((.def_18 (bvslt .def_14 |__ADDRESS_OF_main::CStack_1c@|)))(let ((.def_23 (and .def_18 .def_22)))(let ((.def_15 (bvslt (_ bv0 32) .def_14)))(let ((.def_11 (bvslt (_ bv0 32) |__ADDRESS_OF_main::CStack_20@|)))(let ((.def_16 (and .def_11 .def_15)))(let ((.def_24 (and .def_16 .def_23)))(let ((.def_38 (and .def_24 .def_37)))(let ((.def_48 (and .def_38 .def_47)))(let ((.def_59 (and .def_48 .def_58)))(let ((.def_62 (and .def_59 .def_61)))(let ((.def_67 (and .def_62 .def_65)))(let ((.def_75 (and .def_67 .def_73))).def_75))))))))))))))))))))))))))))))))))))